c defined variables: 29 30 31 32 33 34 35 36 37 38 39 40 41 42 43 44 45 46 47 48 49 50 51 52 53 54 55 56 57 58 59 60 61 62 63 64 65 66 67 68 69 70 71 72 73 74 75 78 79 80 81 82 83 84 85 86 87 88 89 90 91 92 93 94 95 96 97 98 99 100 101 102 103 104 105 106 107 108 109 110 111 112 113 114 115 116 117 118 119 120 121 122 123 124 125 127 128 129 130 131 132 133 134 135 136 137 138 139 140 141 142 143 144 145 146 147 148 149 150 151 152 153 154 155 156 157 158 159 160 161 162 163 164 165 166 167 168 169 170 171 172 173 174 175 176 177 178 179 180 181 182 183 184 185 186 187 188 189 190 191 192 193 194 195 196 197 198 199 200 201 202 203 204 205 206 207 208 209 210 211 212 213 214 
p cnf 951 1454
a 1 3 4 5 6 7 8 9 10 11 12 13 14 15 16 17 18 19 20 21 22 23 24 25 26 0
e 76 77 126 29 30 31 32 33 34 35 36 37 38 39 40 41 42 43 44 45 46 47 48 49 50 51 52 53 54 55 56 57 58 59 60 61 62 63 64 65 66 67 68 69 70 71 72 73 74 75 78 79 80 81 82 83 84 85 86 87 88 89 90 91 92 93 94 95 96 97 98 99 100 101 102 103 104 105 106 107 108 109 110 111 112 113 114 115 116 117 118 119 120 121 122 123 124 125 127 128 129 130 131 132 133 134 135 136 137 138 139 140 141 142 143 144 145 146 147 148 149 150 151 152 153 154 155 156 157 158 159 160 161 162 163 164 165 166 167 168 169 170 171 172 173 174 175 176 177 178 179 180 181 182 183 184 185 186 187 188 189 190 191 192 193 194 195 196 197 198 199 200 201 202 203 204 205 206 207 208 209 210 211 212 213 214 775 776 777 778 779 780 781 782 783 784 785 786 787 788 789 790 791 792 793 794 795 796 797 798 799 800 801 802 803 804 805 806 807 808 809 810 811 812 813 814 815 816 817 818 819 820 821 822 823 824 825 826 827 828 829 830 831 832 833 834 835 836 837 838 839 840 841 842 843 844 845 846 847 848 849 850 851 852 853 854 855 856 857 858 859 860 861 862 863 864 865 866 867 868 869 870 871 872 873 874 875 876 877 878 879 880 881 882 883 884 885 886 887 888 889 890 891 892 893 894 895 896 897 898 899 900 901 902 903 904 905 906 907 908 909 910 911 912 913 914 915 916 917 918 919 920 921 922 923 924 925 926 927 928 929 930 931 932 933 934 935 936 937 938 939 940 941 942 943 944 945 946 947 948 949 950 951 0
d 2 1 3 4 5 6 7 8 9 10 11 12 13 14 0
d 27 3 4 5 6 7 8 9 10 11 12 13 14 0
d 28 15 16 17 18 19 20 21 22 23 24 25 26 0
776 -29 0
-776 29 0
777 -30 0
-777 30 0
778 -31 0
-778 31 0
779 -32 0
-779 32 0
780 -33 0
-780 33 0
781 -34 0
-781 34 0
782 -35 0
-782 35 0
783 -36 0
-783 36 0
784 -37 0
-784 37 0
785 -38 0
-785 38 0
786 -39 0
-786 39 0
787 -40 0
-787 40 0
788 -41 0
-788 41 0
789 -42 0
-789 42 0
790 -43 0
-790 43 0
791 -44 0
-791 44 0
792 -45 0
-792 45 0
793 -46 0
-793 46 0
794 -47 0
-794 47 0
795 -48 0
-795 48 0
796 -49 0
-796 49 0
797 -50 0
-797 50 0
798 -51 0
-798 51 0
799 -52 0
-799 52 0
800 -53 0
-800 53 0
801 -54 0
-801 54 0
802 -55 0
-802 55 0
803 -56 0
-803 56 0
804 -57 0
-804 57 0
805 -58 0
-805 58 0
806 -59 0
-806 59 0
807 -60 0
-807 60 0
808 -61 0
-808 61 0
809 -62 0
-809 62 0
810 -63 0
-810 63 0
811 -64 0
-811 64 0
812 -65 0
-812 65 0
813 -66 0
-813 66 0
814 -67 0
-814 67 0
815 -68 0
-815 68 0
816 -69 0
-816 69 0
817 -70 0
-817 70 0
818 -71 0
-818 71 0
819 -72 0
-819 72 0
820 -73 0
-820 73 0
821 -74 0
-821 74 0
822 -75 0
-822 75 0
823 -78 0
-823 78 0
-775 -79 0
775 79 0
824 -80 0
-824 80 0
825 -81 0
-825 81 0
826 -82 0
-826 82 0
827 -83 0
-827 83 0
828 -84 0
-828 84 0
829 -85 0
-829 85 0
830 -86 0
-830 86 0
831 -87 0
-831 87 0
832 -88 0
-832 88 0
833 -89 0
-833 89 0
834 -90 0
-834 90 0
835 -91 0
-835 91 0
836 -92 0
-836 92 0
837 -93 0
-837 93 0
838 -94 0
-838 94 0
-839 -95 0
839 95 0
840 -96 0
-840 96 0
841 -97 0
-841 97 0
842 -98 0
-842 98 0
843 -99 0
-843 99 0
844 -100 0
-844 100 0
845 -101 0
-845 101 0
846 -102 0
-846 102 0
847 -103 0
-847 103 0
848 -104 0
-848 104 0
-849 -105 0
849 105 0
850 -106 0
-850 106 0
851 -107 0
-851 107 0
852 -108 0
-852 108 0
853 -109 0
-853 109 0
854 -110 0
-854 110 0
855 -111 0
-855 111 0
856 -112 0
-856 112 0
857 -113 0
-857 113 0
858 -114 0
-858 114 0
859 -115 0
-859 115 0
-860 -116 0
860 116 0
861 -117 0
-861 117 0
862 -118 0
-862 118 0
863 -119 0
-863 119 0
864 -120 0
-864 120 0
865 -121 0
-865 121 0
866 -122 0
-866 122 0
867 -123 0
-867 123 0
868 -124 0
-868 124 0
869 -125 0
-869 125 0
870 -127 0
-870 127 0
871 -128 0
-871 128 0
-872 -129 0
872 129 0
873 -130 0
-873 130 0
874 -131 0
-874 131 0
875 -132 0
-875 132 0
876 -133 0
-876 133 0
877 -134 0
-877 134 0
878 -135 0
-878 135 0
879 -136 0
-879 136 0
880 -137 0
-880 137 0
881 -138 0
-881 138 0
882 -139 0
-882 139 0
883 -140 0
-883 140 0
884 -141 0
-884 141 0
885 -142 0
-885 142 0
886 -143 0
-886 143 0
887 -144 0
-887 144 0
888 -145 0
-888 145 0
889 -146 0
-889 146 0
890 -147 0
-890 147 0
891 -148 0
-891 148 0
892 -149 0
-892 149 0
893 -150 0
-893 150 0
894 -151 0
-894 151 0
-895 -152 0
895 152 0
896 -153 0
-896 153 0
897 -154 0
-897 154 0
898 -155 0
-898 155 0
899 -156 0
-899 156 0
900 -157 0
-900 157 0
901 -158 0
-901 158 0
902 -159 0
-902 159 0
903 -160 0
-903 160 0
904 -161 0
-904 161 0
-905 -162 0
905 162 0
906 -163 0
-906 163 0
907 -164 0
-907 164 0
908 -165 0
-908 165 0
909 -166 0
-909 166 0
910 -167 0
-910 167 0
911 -168 0
-911 168 0
912 -169 0
-912 169 0
-913 -170 0
913 170 0
914 -171 0
-914 171 0
915 -172 0
-915 172 0
916 -173 0
-916 173 0
917 -174 0
-917 174 0
918 -175 0
-918 175 0
919 -176 0
-919 176 0
920 -177 0
-920 177 0
921 -178 0
-921 178 0
-922 -179 0
922 179 0
923 -180 0
-923 180 0
924 -181 0
-924 181 0
925 -182 0
-925 182 0
926 -183 0
-926 183 0
927 -184 0
-927 184 0
928 -185 0
-928 185 0
929 -186 0
-929 186 0
-930 -187 0
930 187 0
931 -188 0
-931 188 0
932 -189 0
-932 189 0
933 -190 0
-933 190 0
934 -191 0
-934 191 0
935 -192 0
-935 192 0
936 -193 0
-936 193 0
937 -194 0
-937 194 0
938 -195 0
-938 195 0
939 -196 0
-939 196 0
940 -197 0
-940 197 0
-775 -198 0
775 198 0
-775 -199 0
775 199 0
941 -200 0
-941 200 0
942 -201 0
-942 201 0
943 -202 0
-943 202 0
944 -203 0
-944 203 0
945 -204 0
-945 204 0
946 -205 0
-946 205 0
947 -206 0
-947 206 0
948 -207 0
-948 207 0
949 -208 0
-949 208 0
950 -209 0
-950 209 0
951 -210 0
-951 210 0
-775 -211 0
775 211 0
775 -212 0
-775 212 0
775 -213 0
-775 213 0
775 -214 0
-775 214 0
-29 -23 0
-29 11 0
29 23 -11 0
-30 23 0
-30 -11 0
30 -23 11 0
-31 -29 0
-31 -30 0
31 29 30 0
-32 -24 0
-32 12 0
32 24 -12 0
-33 24 0
-33 -12 0
33 -24 12 0
-34 -32 0
-34 -33 0
34 32 33 0
-35 31 0
-35 34 0
35 -31 -34 0
-36 -25 0
-36 13 0
36 25 -13 0
-37 25 0
-37 -13 0
37 -25 13 0
-38 -36 0
-38 -37 0
38 36 37 0
-39 -26 0
-39 14 0
39 26 -14 0
-40 26 0
-40 -14 0
40 -26 14 0
-41 -39 0
-41 -40 0
41 39 40 0
-42 38 0
-42 41 0
42 -38 -41 0
-43 35 0
-43 42 0
43 -35 -42 0
-44 -15 0
-44 3 0
44 15 -3 0
-45 15 0
-45 -3 0
45 -15 3 0
-46 -44 0
-46 -45 0
46 44 45 0
-47 -16 0
-47 4 0
47 16 -4 0
-48 16 0
-48 -4 0
48 -16 4 0
-49 -47 0
-49 -48 0
49 47 48 0
-50 46 0
-50 49 0
50 -46 -49 0
-51 -17 0
-51 5 0
51 17 -5 0
-52 17 0
-52 -5 0
52 -17 5 0
-53 -51 0
-53 -52 0
53 51 52 0
-54 -18 0
-54 6 0
54 18 -6 0
-55 18 0
-55 -6 0
55 -18 6 0
-56 -54 0
-56 -55 0
56 54 55 0
-57 53 0
-57 56 0
57 -53 -56 0
-58 50 0
-58 57 0
58 -50 -57 0
-59 -19 0
-59 7 0
59 19 -7 0
-60 19 0
-60 -7 0
60 -19 7 0
-61 -59 0
-61 -60 0
61 59 60 0
-62 -20 0
-62 8 0
62 20 -8 0
-63 20 0
-63 -8 0
63 -20 8 0
-64 -62 0
-64 -63 0
64 62 63 0
-65 61 0
-65 64 0
65 -61 -64 0
-66 -21 0
-66 9 0
66 21 -9 0
-67 21 0
-67 -9 0
67 -21 9 0
-68 -66 0
-68 -67 0
68 66 67 0
-69 -22 0
-69 10 0
69 22 -10 0
-70 22 0
-70 -10 0
70 -22 10 0
-71 -69 0
-71 -70 0
71 69 70 0
-72 68 0
-72 71 0
72 -68 -71 0
-73 65 0
-73 72 0
73 -65 -72 0
-74 58 0
-74 73 0
74 -58 -73 0
-75 43 0
-75 74 0
75 -43 -74 0
-76 28 0
-76 -27 0
76 -28 27 0
-77 -28 0
-77 27 0
77 28 -27 0
-78 -76 0
-78 -77 0
78 76 77 0
-79 75 0
-79 -78 0
79 -75 78 0
-80 5 0
-80 3 0
80 -5 -3 0
-81 4 0
-81 80 0
81 -4 -80 0
-82 6 0
-82 3 0
82 -6 -3 0
-83 81 0
-83 82 0
83 -81 -82 0
-84 7 0
-84 3 0
84 -7 -3 0
-85 83 0
-85 84 0
85 -83 -84 0
-86 8 0
-86 3 0
86 -8 -3 0
-87 85 0
-87 86 0
87 -85 -86 0
-88 9 0
-88 3 0
88 -9 -3 0
-89 87 0
-89 88 0
89 -87 -88 0
-90 10 0
-90 3 0
90 -10 -3 0
-91 89 0
-91 90 0
91 -89 -90 0
-92 11 0
-92 3 0
92 -11 -3 0
-93 91 0
-93 92 0
93 -91 -92 0
-94 -91 0
-94 -92 0
94 91 92 0
95 -93 0
95 -94 0
-95 93 94 0
-96 -1 0
-96 -95 0
96 1 95 0
-97 1 0
-97 92 0
97 -1 -92 0
-98 -96 0
-98 -97 0
98 96 97 0
-99 -23 0
-99 -98 0
99 23 98 0
-100 23 0
-100 98 0
100 -23 -98 0
-101 -99 0
-101 -100 0
101 99 100 0
-102 12 0
-102 3 0
102 -12 -3 0
-103 93 0
-103 102 0
103 -93 -102 0
-104 -93 0
-104 -102 0
104 93 102 0
105 -103 0
105 -104 0
-105 103 104 0
-106 -1 0
-106 -105 0
106 1 105 0
-107 1 0
-107 102 0
107 -1 -102 0
-108 -106 0
-108 -107 0
108 106 107 0
-109 -24 0
-109 -108 0
109 24 108 0
-110 24 0
-110 108 0
110 -24 -108 0
-111 -109 0
-111 -110 0
111 109 110 0
-112 101 0
-112 111 0
112 -101 -111 0
-113 13 0
-113 3 0
113 -13 -3 0
-114 103 0
-114 113 0
114 -103 -113 0
-115 -103 0
-115 -113 0
115 103 113 0
116 -114 0
116 -115 0
-116 114 115 0
-117 -1 0
-117 -116 0
117 1 116 0
-118 1 0
-118 113 0
118 -1 -113 0
-119 -117 0
-119 -118 0
119 117 118 0
-120 -25 0
-120 -119 0
120 25 119 0
-121 25 0
-121 119 0
121 -25 -119 0
-122 -120 0
-122 -121 0
122 120 121 0
-123 14 0
-123 3 0
123 -14 -3 0
-124 114 0
-124 123 0
124 -114 -123 0
-125 -1 0
-125 124 0
125 1 -124 0
-126 -2 0
-126 114 0
126 2 -114 0
-127 -1 0
-127 126 0
127 1 -126 0
-128 -123 0
-128 -127 0
128 123 127 0
129 -125 0
129 -128 0
-129 125 128 0
-130 -26 0
-130 -129 0
130 26 129 0
-131 26 0
-131 129 0
131 -26 -129 0
-132 -130 0
-132 -131 0
132 130 131 0
-133 122 0
-133 132 0
133 -122 -132 0
-134 112 0
-134 133 0
134 -112 -133 0
-135 4 0
-135 3 0
135 -4 -3 0
-136 -1 0
-136 -135 0
136 1 135 0
-137 1 0
-137 135 0
137 -1 -135 0
-138 -136 0
-138 -137 0
138 136 137 0
-139 -16 0
-139 -138 0
139 16 138 0
-140 16 0
-140 138 0
140 -16 -138 0
-141 -139 0
-141 -140 0
141 139 140 0
-142 15 0
-142 141 0
142 -15 -141 0
-143 -5 0
-143 135 0
143 5 -135 0
-144 -1 0
-144 143 0
144 1 -143 0
-145 4 0
-145 -1 0
145 -4 1 0
-146 80 0
-146 -145 0
146 -80 145 0
-147 -144 0
-147 -146 0
147 144 146 0
-148 -17 0
-148 -147 0
148 17 147 0
-149 17 0
-149 147 0
149 -17 -147 0
-150 -148 0
-150 -149 0
150 148 149 0
-151 -81 0
-151 -82 0
151 81 82 0
152 -83 0
152 -151 0
-152 83 151 0
-153 -1 0
-153 -152 0
153 1 152 0
-154 1 0
-154 82 0
154 -1 -82 0
-155 -153 0
-155 -154 0
155 153 154 0
-156 -18 0
-156 -155 0
156 18 155 0
-157 18 0
-157 155 0
157 -18 -155 0
-158 -156 0
-158 -157 0
158 156 157 0
-159 150 0
-159 158 0
159 -150 -158 0
-160 142 0
-160 159 0
160 -142 -159 0
-161 -83 0
-161 -84 0
161 83 84 0
162 -85 0
162 -161 0
-162 85 161 0
-163 -1 0
-163 -162 0
163 1 162 0
-164 1 0
-164 84 0
164 -1 -84 0
-165 -163 0
-165 -164 0
165 163 164 0
-166 -19 0
-166 -165 0
166 19 165 0
-167 19 0
-167 165 0
167 -19 -165 0
-168 -166 0
-168 -167 0
168 166 167 0
-169 -85 0
-169 -86 0
169 85 86 0
170 -87 0
170 -169 0
-170 87 169 0
-171 -1 0
-171 -170 0
171 1 170 0
-172 1 0
-172 86 0
172 -1 -86 0
-173 -171 0
-173 -172 0
173 171 172 0
-174 -20 0
-174 -173 0
174 20 173 0
-175 20 0
-175 173 0
175 -20 -173 0
-176 -174 0
-176 -175 0
176 174 175 0
-177 168 0
-177 176 0
177 -168 -176 0
-178 -87 0
-178 -88 0
178 87 88 0
179 -89 0
179 -178 0
-179 89 178 0
-180 -1 0
-180 -179 0
180 1 179 0
-181 1 0
-181 88 0
181 -1 -88 0
-182 -180 0
-182 -181 0
182 180 181 0
-183 -21 0
-183 -182 0
183 21 182 0
-184 21 0
-184 182 0
184 -21 -182 0
-185 -183 0
-185 -184 0
185 183 184 0
-186 -89 0
-186 -90 0
186 89 90 0
187 -91 0
187 -186 0
-187 91 186 0
-188 -1 0
-188 -187 0
188 1 187 0
-189 1 0
-189 90 0
189 -1 -90 0
-190 -188 0
-190 -189 0
190 188 189 0
-191 -22 0
-191 -190 0
191 22 190 0
-192 22 0
-192 190 0
192 -22 -190 0
-193 -191 0
-193 -192 0
193 191 192 0
-194 185 0
-194 193 0
194 -185 -193 0
-195 177 0
-195 194 0
195 -177 -194 0
-196 160 0
-196 195 0
196 -160 -195 0
-197 134 0
-197 196 0
197 -134 -196 0
-198 197 0
-198 77 0
198 -197 -77 0
-199 27 0
-199 124 0
199 -27 -124 0
-200 -12 0
-200 -11 0
200 12 11 0
-201 -14 0
-201 -13 0
201 14 13 0
-202 200 0
-202 201 0
202 -200 -201 0
-203 -4 0
-203 -3 0
203 4 3 0
-204 -6 0
-204 -5 0
204 6 5 0
-205 203 0
-205 204 0
205 -203 -204 0
-206 -8 0
-206 -7 0
206 8 7 0
-207 -10 0
-207 -9 0
207 10 9 0
-208 206 0
-208 207 0
208 -206 -207 0
-209 205 0
-209 208 0
209 -205 -208 0
-210 202 0
-210 209 0
210 -202 -209 0
-211 -27 0
-211 210 0
211 27 -210 0
-212 -199 0
-212 -211 0
212 199 211 0
-213 -198 0
-213 212 0
213 198 -212 0
-214 -79 0
-214 213 0
214 79 -213 0
214 0
775 0
11 -776 0
-23 -776 0
-11 23 776 0
-11 -777 0
23 -777 0
11 -23 777 0
-29 -778 0
-30 -778 0
29 30 778 0
12 -779 0
-24 -779 0
-12 24 779 0
-12 -780 0
24 -780 0
12 -24 780 0
-32 -781 0
-33 -781 0
32 33 781 0
31 -782 0
34 -782 0
-31 -34 782 0
13 -783 0
-25 -783 0
-13 25 783 0
-13 -784 0
25 -784 0
13 -25 784 0
-36 -785 0
-37 -785 0
36 37 785 0
14 -786 0
-26 -786 0
-14 26 786 0
-14 -787 0
26 -787 0
14 -26 787 0
-39 -788 0
-40 -788 0
39 40 788 0
38 -789 0
41 -789 0
-38 -41 789 0
35 -790 0
42 -790 0
-35 -42 790 0
3 -791 0
-15 -791 0
-3 15 791 0
-3 -792 0
15 -792 0
3 -15 792 0
-44 -793 0
-45 -793 0
44 45 793 0
4 -794 0
-16 -794 0
-4 16 794 0
-4 -795 0
16 -795 0
4 -16 795 0
-47 -796 0
-48 -796 0
47 48 796 0
46 -797 0
49 -797 0
-46 -49 797 0
5 -798 0
-17 -798 0
-5 17 798 0
-5 -799 0
17 -799 0
5 -17 799 0
-51 -800 0
-52 -800 0
51 52 800 0
6 -801 0
-18 -801 0
-6 18 801 0
-6 -802 0
18 -802 0
6 -18 802 0
-54 -803 0
-55 -803 0
54 55 803 0
53 -804 0
56 -804 0
-53 -56 804 0
50 -805 0
57 -805 0
-50 -57 805 0
7 -806 0
-19 -806 0
-7 19 806 0
-7 -807 0
19 -807 0
7 -19 807 0
-59 -808 0
-60 -808 0
59 60 808 0
8 -809 0
-20 -809 0
-8 20 809 0
-8 -810 0
20 -810 0
8 -20 810 0
-62 -811 0
-63 -811 0
62 63 811 0
61 -812 0
64 -812 0
-61 -64 812 0
9 -813 0
-21 -813 0
-9 21 813 0
-9 -814 0
21 -814 0
9 -21 814 0
-66 -815 0
-67 -815 0
66 67 815 0
10 -816 0
-22 -816 0
-10 22 816 0
-10 -817 0
22 -817 0
10 -22 817 0
-69 -818 0
-70 -818 0
69 70 818 0
68 -819 0
71 -819 0
-68 -71 819 0
65 -820 0
72 -820 0
-65 -72 820 0
58 -821 0
73 -821 0
-58 -73 821 0
43 -822 0
74 -822 0
-43 -74 822 0
-76 -823 0
-77 -823 0
76 77 823 0
3 -824 0
5 -824 0
-3 -5 824 0
4 -825 0
80 -825 0
-4 -80 825 0
3 -826 0
6 -826 0
-3 -6 826 0
81 -827 0
82 -827 0
-81 -82 827 0
3 -828 0
7 -828 0
-3 -7 828 0
83 -829 0
84 -829 0
-83 -84 829 0
3 -830 0
8 -830 0
-3 -8 830 0
85 -831 0
86 -831 0
-85 -86 831 0
3 -832 0
9 -832 0
-3 -9 832 0
87 -833 0
88 -833 0
-87 -88 833 0
3 -834 0
10 -834 0
-3 -10 834 0
89 -835 0
90 -835 0
-89 -90 835 0
3 -836 0
11 -836 0
-3 -11 836 0
91 -837 0
92 -837 0
-91 -92 837 0
-91 -838 0
-92 -838 0
91 92 838 0
-93 -839 0
-94 -839 0
93 94 839 0
-1 -840 0
-95 -840 0
1 95 840 0
1 -841 0
92 -841 0
-1 -92 841 0
-96 -842 0
-97 -842 0
96 97 842 0
-23 -843 0
-98 -843 0
23 98 843 0
23 -844 0
98 -844 0
-23 -98 844 0
-99 -845 0
-100 -845 0
99 100 845 0
3 -846 0
12 -846 0
-3 -12 846 0
93 -847 0
102 -847 0
-93 -102 847 0
-93 -848 0
-102 -848 0
93 102 848 0
-103 -849 0
-104 -849 0
103 104 849 0
-1 -850 0
-105 -850 0
1 105 850 0
1 -851 0
102 -851 0
-1 -102 851 0
-106 -852 0
-107 -852 0
106 107 852 0
-24 -853 0
-108 -853 0
24 108 853 0
24 -854 0
108 -854 0
-24 -108 854 0
-109 -855 0
-110 -855 0
109 110 855 0
101 -856 0
111 -856 0
-101 -111 856 0
3 -857 0
13 -857 0
-3 -13 857 0
103 -858 0
113 -858 0
-103 -113 858 0
-103 -859 0
-113 -859 0
103 113 859 0
-114 -860 0
-115 -860 0
114 115 860 0
-1 -861 0
-116 -861 0
1 116 861 0
1 -862 0
113 -862 0
-1 -113 862 0
-117 -863 0
-118 -863 0
117 118 863 0
-25 -864 0
-119 -864 0
25 119 864 0
25 -865 0
119 -865 0
-25 -119 865 0
-120 -866 0
-121 -866 0
120 121 866 0
3 -867 0
14 -867 0
-3 -14 867 0
114 -868 0
123 -868 0
-114 -123 868 0
-1 -869 0
124 -869 0
1 -124 869 0
-1 -870 0
126 -870 0
1 -126 870 0
-123 -871 0
-127 -871 0
123 127 871 0
-125 -872 0
-128 -872 0
125 128 872 0
-26 -873 0
-129 -873 0
26 129 873 0
26 -874 0
129 -874 0
-26 -129 874 0
-130 -875 0
-131 -875 0
130 131 875 0
122 -876 0
132 -876 0
-122 -132 876 0
112 -877 0
133 -877 0
-112 -133 877 0
3 -878 0
4 -878 0
-3 -4 878 0
-1 -879 0
-135 -879 0
1 135 879 0
1 -880 0
135 -880 0
-1 -135 880 0
-136 -881 0
-137 -881 0
136 137 881 0
-16 -882 0
-138 -882 0
16 138 882 0
16 -883 0
138 -883 0
-16 -138 883 0
-139 -884 0
-140 -884 0
139 140 884 0
15 -885 0
141 -885 0
-15 -141 885 0
-5 -886 0
135 -886 0
5 -135 886 0
-1 -887 0
143 -887 0
1 -143 887 0
-1 -888 0
4 -888 0
1 -4 888 0
80 -889 0
-145 -889 0
-80 145 889 0
-144 -890 0
-146 -890 0
144 146 890 0
-17 -891 0
-147 -891 0
17 147 891 0
17 -892 0
147 -892 0
-17 -147 892 0
-148 -893 0
-149 -893 0
148 149 893 0
-81 -894 0
-82 -894 0
81 82 894 0
-83 -895 0
-151 -895 0
83 151 895 0
-1 -896 0
-152 -896 0
1 152 896 0
1 -897 0
82 -897 0
-1 -82 897 0
-153 -898 0
-154 -898 0
153 154 898 0
-18 -899 0
-155 -899 0
18 155 899 0
18 -900 0
155 -900 0
-18 -155 900 0
-156 -901 0
-157 -901 0
156 157 901 0
150 -902 0
158 -902 0
-150 -158 902 0
142 -903 0
159 -903 0
-142 -159 903 0
-83 -904 0
-84 -904 0
83 84 904 0
-85 -905 0
-161 -905 0
85 161 905 0
-1 -906 0
-162 -906 0
1 162 906 0
1 -907 0
84 -907 0
-1 -84 907 0
-163 -908 0
-164 -908 0
163 164 908 0
-19 -909 0
-165 -909 0
19 165 909 0
19 -910 0
165 -910 0
-19 -165 910 0
-166 -911 0
-167 -911 0
166 167 911 0
-85 -912 0
-86 -912 0
85 86 912 0
-87 -913 0
-169 -913 0
87 169 913 0
-1 -914 0
-170 -914 0
1 170 914 0
1 -915 0
86 -915 0
-1 -86 915 0
-171 -916 0
-172 -916 0
171 172 916 0
-20 -917 0
-173 -917 0
20 173 917 0
20 -918 0
173 -918 0
-20 -173 918 0
-174 -919 0
-175 -919 0
174 175 919 0
168 -920 0
176 -920 0
-168 -176 920 0
-87 -921 0
-88 -921 0
87 88 921 0
-89 -922 0
-178 -922 0
89 178 922 0
-1 -923 0
-179 -923 0
1 179 923 0
1 -924 0
88 -924 0
-1 -88 924 0
-180 -925 0
-181 -925 0
180 181 925 0
-21 -926 0
-182 -926 0
21 182 926 0
21 -927 0
182 -927 0
-21 -182 927 0
-183 -928 0
-184 -928 0
183 184 928 0
-89 -929 0
-90 -929 0
89 90 929 0
-91 -930 0
-186 -930 0
91 186 930 0
-1 -931 0
-187 -931 0
1 187 931 0
1 -932 0
90 -932 0
-1 -90 932 0
-188 -933 0
-189 -933 0
188 189 933 0
-22 -934 0
-190 -934 0
22 190 934 0
22 -935 0
190 -935 0
-22 -190 935 0
-191 -936 0
-192 -936 0
191 192 936 0
185 -937 0
193 -937 0
-185 -193 937 0
177 -938 0
194 -938 0
-177 -194 938 0
160 -939 0
195 -939 0
-160 -195 939 0
134 -940 0
196 -940 0
-134 -196 940 0
-11 -941 0
-12 -941 0
11 12 941 0
-13 -942 0
-14 -942 0
13 14 942 0
200 -943 0
201 -943 0
-200 -201 943 0
-3 -944 0
-4 -944 0
3 4 944 0
-5 -945 0
-6 -945 0
5 6 945 0
203 -946 0
204 -946 0
-203 -204 946 0
-7 -947 0
-8 -947 0
7 8 947 0
-9 -948 0
-10 -948 0
9 10 948 0
206 -949 0
207 -949 0
-206 -207 949 0
205 -950 0
208 -950 0
-205 -208 950 0
202 -951 0
209 -951 0
-202 -209 951 0
